; benchmark generated from python API
(set-info :status unknown)
(declare-fun s () Int)
(define-funs-rec ( ( Tn_01 ((x!1 Int)) Int)
                   ( pn_01 ((x!1 Int)) Int)
                   ( T2_08 ((x!1 Int)) Int)
                   ( b2_08 ((x!1 Int)) Int))
                 ( (mod ((_ pn_01 0) x!1) s)
                   (ite (= x!1 0) 0 (+ ((_ pn_01 0) (div x!1 s)) x!1))
                   (mod ((_ b2_08 0) x!1) 2)
                   (let ((a!1 (- ((_ b2_08 0) (+ (div x!1 2) (mod x!1 2)))
                                 ((_ b2_08 0) (div x!1 2)))))
                     (ite (< x!1 2) x!1 a!1))))
(assert
 (forall ((n Int) )(let ((?x324 ((_ Tn_01 0) n)))
(let ((?x296 ((_ T2_08 0) n)))
(let (($x215 (= ?x296 ?x324)))
(let (($x250 (>= n 0)))
(=> $x250 $x215))))))
)
(check-sat)
